# Solution for model Bin Packing Problem
# Objective value = 150
z_0 0
z_1 0
z_2 0
z_3 1
I_0_1 0
I_0_2 0
I_0_3 0
I_0_4 0
I_0_5 0
I_0_6 0
I_0_7 0
I_0_8 0
I_0_9 0
I_0_10 0
I_0_11 0
I_0_12 0
I_0_13 0
I_0_14 0
I_0_15 0
I_0_16 0
I_0_17 0
I_0_18 0
I_0_19 0
I_0_20 0
I_0_21 0
I_0_22 0
I_0_23 0
I_0_24 0
I_1_0 0
I_1_2 0
I_1_3 0
I_1_4 0
I_1_5 0
I_1_6 0
I_1_7 0
I_1_8 0
I_1_9 0
I_1_10 0
I_1_11 0
I_1_12 0
I_1_13 0
I_1_14 0
I_1_15 0
I_1_16 0
I_1_17 0
I_1_18 0
I_1_19 0
I_1_20 0
I_1_21 0
I_1_22 0
I_1_23 0
I_1_24 0
I_2_0 0
I_2_1 0
I_2_3 0
I_2_4 0
I_2_5 0
I_2_6 0
I_2_7 0
I_2_8 0
I_2_9 0
I_2_10 0
I_2_11 0
I_2_12 0
I_2_13 0
I_2_14 0
I_2_15 0
I_2_16 0
I_2_17 0
I_2_18 0
I_2_19 0
I_2_20 0
I_2_21 0
I_2_22 0
I_2_23 0
I_2_24 0
I_3_0 0
I_3_1 0
I_3_2 0
I_3_4 0
I_3_5 0
I_3_6 0
I_3_7 0
I_3_8 0
I_3_9 0
I_3_10 0
I_3_11 0
I_3_12 0
I_3_13 0
I_3_14 0
I_3_15 0
I_3_16 0
I_3_17 0
I_3_18 0
I_3_19 0
I_3_20 0
I_3_21 0
I_3_22 0
I_3_23 0
I_3_24 0
I_4_0 0
I_4_1 0
I_4_2 0
I_4_3 0
I_4_5 0
I_4_6 0
I_4_7 0
I_4_8 0
I_4_9 0
I_4_10 0
I_4_11 0
I_4_12 0
I_4_13 0
I_4_14 0
I_4_15 0
I_4_16 0
I_4_17 0
I_4_18 0
I_4_19 0
I_4_20 0
I_4_21 0
I_4_22 0
I_4_23 0
I_4_24 0
I_5_0 0
I_5_1 0
I_5_2 0
I_5_3 0
I_5_4 0
I_5_6 0
I_5_7 0
I_5_8 0
I_5_9 0
I_5_10 0
I_5_11 0
I_5_12 0
I_5_13 0
I_5_14 0
I_5_15 0
I_5_16 0
I_5_17 0
I_5_18 0
I_5_19 0
I_5_20 0
I_5_21 0
I_5_22 0
I_5_23 0
I_5_24 0
I_6_0 0
I_6_1 0
I_6_2 0
I_6_3 0
I_6_4 0
I_6_5 0
I_6_7 0
I_6_8 0
I_6_9 0
I_6_10 0
I_6_11 0
I_6_12 0
I_6_13 0
I_6_14 0
I_6_15 0
I_6_16 0
I_6_17 0
I_6_18 0
I_6_19 0
I_6_20 0
I_6_21 0
I_6_22 0
I_6_23 0
I_6_24 0
I_7_0 0
I_7_1 0
I_7_2 0
I_7_3 0
I_7_4 0
I_7_5 0
I_7_6 0
I_7_8 0
I_7_9 0
I_7_10 0
I_7_11 0
I_7_12 0
I_7_13 0
I_7_14 0
I_7_15 0
I_7_16 0
I_7_17 0
I_7_18 0
I_7_19 0
I_7_20 0
I_7_21 0
I_7_22 0
I_7_23 0
I_7_24 0
I_8_0 0
I_8_1 0
I_8_2 0
I_8_3 0
I_8_4 0
I_8_5 0
I_8_6 0
I_8_7 0
I_8_9 0
I_8_10 0
I_8_11 0
I_8_12 0
I_8_13 0
I_8_14 0
I_8_15 0
I_8_16 0
I_8_17 0
I_8_18 0
I_8_19 0
I_8_20 0
I_8_21 0
I_8_22 0
I_8_23 0
I_8_24 0
I_9_0 0
I_9_1 0
I_9_2 0
I_9_3 0
I_9_4 0
I_9_5 0
I_9_6 0
I_9_7 0
I_9_8 0
I_9_10 0
I_9_11 0
I_9_12 0
I_9_13 0
I_9_14 0
I_9_15 0
I_9_16 0
I_9_17 0
I_9_18 0
I_9_19 0
I_9_20 0
I_9_21 0
I_9_22 0
I_9_23 0
I_9_24 0
I_10_0 0
I_10_1 0
I_10_2 0
I_10_3 0
I_10_4 0
I_10_5 0
I_10_6 0
I_10_7 0
I_10_8 0
I_10_9 0
I_10_11 0
I_10_12 0
I_10_13 0
I_10_14 0
I_10_15 0
I_10_16 0
I_10_17 0
I_10_18 0
I_10_19 0
I_10_20 0
I_10_21 0
I_10_22 0
I_10_23 0
I_10_24 0
I_11_0 0
I_11_1 0
I_11_2 0
I_11_3 0
I_11_4 0
I_11_5 0
I_11_6 0
I_11_7 0
I_11_8 0
I_11_9 0
I_11_10 0
I_11_12 0
I_11_13 0
I_11_14 0
I_11_15 0
I_11_16 0
I_11_17 0
I_11_18 0
I_11_19 0
I_11_20 0
I_11_21 0
I_11_22 0
I_11_23 0
I_11_24 0
I_12_0 0
I_12_1 0
I_12_2 0
I_12_3 0
I_12_4 0
I_12_5 0
I_12_6 0
I_12_7 0
I_12_8 0
I_12_9 0
I_12_10 0
I_12_11 0
I_12_13 0
I_12_14 0
I_12_15 0
I_12_16 0
I_12_17 0
I_12_18 0
I_12_19 0
I_12_20 0
I_12_21 0
I_12_22 0
I_12_23 0
I_12_24 0
I_13_0 0
I_13_1 0
I_13_2 0
I_13_3 0
I_13_4 0
I_13_5 0
I_13_6 0
I_13_7 0
I_13_8 0
I_13_9 0
I_13_10 0
I_13_11 0
I_13_12 0
I_13_14 0
I_13_15 0
I_13_16 0
I_13_17 0
I_13_18 0
I_13_19 0
I_13_20 0
I_13_21 0
I_13_22 0
I_13_23 0
I_13_24 0
I_14_0 0
I_14_1 0
I_14_2 0
I_14_3 0
I_14_4 0
I_14_5 0
I_14_6 0
I_14_7 0
I_14_8 0
I_14_9 0
I_14_10 0
I_14_11 0
I_14_12 0
I_14_13 0
I_14_15 0
I_14_16 0
I_14_17 0
I_14_18 0
I_14_19 0
I_14_20 0
I_14_21 0
I_14_22 0
I_14_23 0
I_14_24 0
I_15_0 0
I_15_1 0
I_15_2 0
I_15_3 0
I_15_4 0
I_15_5 0
I_15_6 0
I_15_7 0
I_15_8 0
I_15_9 0
I_15_10 0
I_15_11 0
I_15_12 0
I_15_13 0
I_15_14 0
I_15_16 0
I_15_17 0
I_15_18 0
I_15_19 0
I_15_20 0
I_15_21 0
I_15_22 0
I_15_23 0
I_15_24 0
I_16_0 0
I_16_1 0
I_16_2 0
I_16_3 0
I_16_4 0
I_16_5 0
I_16_6 0
I_16_7 0
I_16_8 0
I_16_9 0
I_16_10 0
I_16_11 0
I_16_12 0
I_16_13 0
I_16_14 0
I_16_15 0
I_16_17 0
I_16_18 0
I_16_19 0
I_16_20 0
I_16_21 0
I_16_22 0
I_16_23 0
I_16_24 0
I_17_0 0
I_17_1 0
I_17_2 0
I_17_3 0
I_17_4 0
I_17_5 0
I_17_6 0
I_17_7 0
I_17_8 0
I_17_9 0
I_17_10 0
I_17_11 0
I_17_12 0
I_17_13 0
I_17_14 0
I_17_15 0
I_17_16 0
I_17_18 0
I_17_19 0
I_17_20 0
I_17_21 0
I_17_22 0
I_17_23 0
I_17_24 0
I_18_0 0
I_18_1 0
I_18_2 0
I_18_3 0
I_18_4 0
I_18_5 0
I_18_6 0
I_18_7 0
I_18_8 0
I_18_9 0
I_18_10 0
I_18_11 0
I_18_12 0
I_18_13 0
I_18_14 0
I_18_15 0
I_18_16 0
I_18_17 0
I_18_19 0
I_18_20 0
I_18_21 0
I_18_22 0
I_18_23 0
I_18_24 0
I_19_0 0
I_19_1 0
I_19_2 0
I_19_3 0
I_19_4 0
I_19_5 0
I_19_6 0
I_19_7 0
I_19_8 0
I_19_9 0
I_19_10 0
I_19_11 0
I_19_12 0
I_19_13 0
I_19_14 0
I_19_15 0
I_19_16 0
I_19_17 0
I_19_18 0
I_19_20 0
I_19_21 0
I_19_22 0
I_19_23 0
I_19_24 0
I_20_0 0
I_20_1 0
I_20_2 0
I_20_3 0
I_20_4 0
I_20_5 0
I_20_6 0
I_20_7 0
I_20_8 0
I_20_9 0
I_20_10 0
I_20_11 0
I_20_12 0
I_20_13 0
I_20_14 0
I_20_15 0
I_20_16 0
I_20_17 0
I_20_18 0
I_20_19 0
I_20_21 0
I_20_22 0
I_20_23 0
I_20_24 0
I_21_0 0
I_21_1 0
I_21_2 0
I_21_3 0
I_21_4 0
I_21_5 0
I_21_6 0
I_21_7 0
I_21_8 0
I_21_9 0
I_21_10 0
I_21_11 0
I_21_12 0
I_21_13 0
I_21_14 0
I_21_15 0
I_21_16 0
I_21_17 0
I_21_18 0
I_21_19 0
I_21_20 0
I_21_22 0
I_21_23 0
I_21_24 0
I_22_0 0
I_22_1 0
I_22_2 0
I_22_3 0
I_22_4 0
I_22_5 0
I_22_6 0
I_22_7 0
I_22_8 0
I_22_9 0
I_22_10 0
I_22_11 0
I_22_12 0
I_22_13 0
I_22_14 0
I_22_15 0
I_22_16 0
I_22_17 0
I_22_18 0
I_22_19 0
I_22_20 0
I_22_21 0
I_22_23 0
I_22_24 0
I_23_0 0
I_23_1 0
I_23_2 0
I_23_3 0
I_23_4 0
I_23_5 0
I_23_6 0
I_23_7 0
I_23_8 0
I_23_9 0
I_23_10 0
I_23_11 0
I_23_12 0
I_23_13 0
I_23_14 0
I_23_15 0
I_23_16 0
I_23_17 0
I_23_18 0
I_23_19 0
I_23_20 0
I_23_21 0
I_23_22 0
I_23_24 0
I_24_0 0
I_24_1 0
I_24_2 0
I_24_3 0
I_24_4 0
I_24_5 0
I_24_6 0
I_24_7 0
I_24_8 0
I_24_9 0
I_24_10 0
I_24_11 0
I_24_12 0
I_24_13 0
I_24_14 0
I_24_15 0
I_24_16 0
I_24_17 0
I_24_18 0
I_24_19 0
I_24_20 0
I_24_21 0
I_24_22 0
I_24_23 0
b_0_1 1
b_0_2 1
b_0_3 1
b_0_4 1
b_0_5 1
b_0_6 1
b_0_7 1
b_0_8 1
b_0_9 1
b_0_10 1
b_0_11 1
b_0_12 1
b_0_13 1
b_0_14 1
b_0_15 1
b_0_16 1
b_0_17 1
b_0_18 1
b_0_19 1
b_0_20 1
b_0_21 1
b_0_22 1
b_0_23 1
b_0_24 1
b_1_0 1
b_1_2 1
b_1_3 1
b_1_4 1
b_1_5 1
b_1_6 1
b_1_7 1
b_1_8 1
b_1_9 1
b_1_10 1
b_1_11 1
b_1_12 1
b_1_13 1
b_1_14 1
b_1_15 1
b_1_16 1
b_1_17 1
b_1_18 1
b_1_19 1
b_1_20 1
b_1_21 1
b_1_22 1
b_1_23 1
b_1_24 1
b_2_0 1
b_2_1 1
b_2_3 1
b_2_4 1
b_2_5 1
b_2_6 1
b_2_7 1
b_2_8 1
b_2_9 1
b_2_10 1
b_2_11 1
b_2_12 1
b_2_13 1
b_2_14 1
b_2_15 1
b_2_16 1
b_2_17 1
b_2_18 1
b_2_19 1
b_2_20 1
b_2_21 1
b_2_22 1
b_2_23 1
b_2_24 1
b_3_0 1
b_3_1 1
b_3_2 1
b_3_4 1
b_3_5 1
b_3_6 1
b_3_7 1
b_3_8 1
b_3_9 1
b_3_10 1
b_3_11 1
b_3_12 1
b_3_13 1
b_3_14 1
b_3_15 1
b_3_16 1
b_3_17 1
b_3_18 1
b_3_19 1
b_3_20 1
b_3_21 1
b_3_22 1
b_3_23 1
b_3_24 1
b_4_0 1
b_4_1 1
b_4_2 1
b_4_3 1
b_4_5 1
b_4_6 1
b_4_7 1
b_4_8 1
b_4_9 1
b_4_10 1
b_4_11 1
b_4_12 1
b_4_13 1
b_4_14 1
b_4_15 1
b_4_16 1
b_4_17 1
b_4_18 1
b_4_19 1
b_4_20 1
b_4_21 1
b_4_22 1
b_4_23 1
b_4_24 1
b_5_0 1
b_5_1 1
b_5_2 1
b_5_3 1
b_5_4 1
b_5_6 1
b_5_7 1
b_5_8 1
b_5_9 1
b_5_10 1
b_5_11 1
b_5_12 1
b_5_13 1
b_5_14 1
b_5_15 1
b_5_16 1
b_5_17 1
b_5_18 1
b_5_19 1
b_5_20 1
b_5_21 1
b_5_22 1
b_5_23 1
b_5_24 1
b_6_0 1
b_6_1 1
b_6_2 1
b_6_3 1
b_6_4 1
b_6_5 1
b_6_7 1
b_6_8 1
b_6_9 1
b_6_10 1
b_6_11 1
b_6_12 1
b_6_13 1
b_6_14 1
b_6_15 1
b_6_16 1
b_6_17 1
b_6_18 1
b_6_19 1
b_6_20 1
b_6_21 1
b_6_22 1
b_6_23 1
b_6_24 1
b_7_0 1
b_7_1 1
b_7_2 1
b_7_3 1
b_7_4 1
b_7_5 1
b_7_6 1
b_7_8 1
b_7_9 1
b_7_10 1
b_7_11 1
b_7_12 1
b_7_13 1
b_7_14 1
b_7_15 1
b_7_16 1
b_7_17 1
b_7_18 1
b_7_19 1
b_7_20 1
b_7_21 1
b_7_22 1
b_7_23 1
b_7_24 1
b_8_0 1
b_8_1 1
b_8_2 1
b_8_3 1
b_8_4 1
b_8_5 1
b_8_6 1
b_8_7 1
b_8_9 1
b_8_10 1
b_8_11 1
b_8_12 1
b_8_13 1
b_8_14 1
b_8_15 1
b_8_16 1
b_8_17 1
b_8_18 1
b_8_19 1
b_8_20 1
b_8_21 1
b_8_22 1
b_8_23 1
b_8_24 1
b_9_0 1
b_9_1 1
b_9_2 1
b_9_3 1
b_9_4 1
b_9_5 1
b_9_6 1
b_9_7 1
b_9_8 1
b_9_10 1
b_9_11 1
b_9_12 1
b_9_13 1
b_9_14 1
b_9_15 1
b_9_16 1
b_9_17 1
b_9_18 1
b_9_19 1
b_9_20 1
b_9_21 1
b_9_22 1
b_9_23 1
b_9_24 1
b_10_0 1
b_10_1 1
b_10_2 1
b_10_3 1
b_10_4 1
b_10_5 1
b_10_6 1
b_10_7 1
b_10_8 1
b_10_9 1
b_10_11 1
b_10_12 1
b_10_13 1
b_10_14 1
b_10_15 1
b_10_16 1
b_10_17 1
b_10_18 1
b_10_19 1
b_10_20 1
b_10_21 1
b_10_22 1
b_10_23 1
b_10_24 1
b_11_0 1
b_11_1 1
b_11_2 1
b_11_3 1
b_11_4 1
b_11_5 1
b_11_6 1
b_11_7 1
b_11_8 1
b_11_9 1
b_11_10 1
b_11_12 1
b_11_13 1
b_11_14 1
b_11_15 1
b_11_16 1
b_11_17 1
b_11_18 1
b_11_19 1
b_11_20 1
b_11_21 1
b_11_22 1
b_11_23 1
b_11_24 1
b_12_0 1
b_12_1 1
b_12_2 1
b_12_3 1
b_12_4 1
b_12_5 1
b_12_6 1
b_12_7 1
b_12_8 1
b_12_9 1
b_12_10 1
b_12_11 1
b_12_13 1
b_12_14 1
b_12_15 1
b_12_16 1
b_12_17 1
b_12_18 1
b_12_19 1
b_12_20 1
b_12_21 1
b_12_22 1
b_12_23 1
b_12_24 1
b_13_0 1
b_13_1 1
b_13_2 1
b_13_3 1
b_13_4 1
b_13_5 1
b_13_6 1
b_13_7 1
b_13_8 1
b_13_9 1
b_13_10 1
b_13_11 1
b_13_12 1
b_13_14 1
b_13_15 1
b_13_16 1
b_13_17 1
b_13_18 1
b_13_19 1
b_13_20 1
b_13_21 1
b_13_22 1
b_13_23 1
b_13_24 1
b_14_0 1
b_14_1 1
b_14_2 1
b_14_3 1
b_14_4 1
b_14_5 1
b_14_6 1
b_14_7 1
b_14_8 1
b_14_9 1
b_14_10 1
b_14_11 1
b_14_12 1
b_14_13 1
b_14_15 1
b_14_16 1
b_14_17 1
b_14_18 1
b_14_19 1
b_14_20 1
b_14_21 1
b_14_22 1
b_14_23 1
b_14_24 1
b_15_0 1
b_15_1 1
b_15_2 1
b_15_3 1
b_15_4 1
b_15_5 1
b_15_6 1
b_15_7 1
b_15_8 1
b_15_9 1
b_15_10 1
b_15_11 1
b_15_12 1
b_15_13 1
b_15_14 1
b_15_16 1
b_15_17 1
b_15_18 1
b_15_19 1
b_15_20 1
b_15_21 1
b_15_22 1
b_15_23 1
b_15_24 1
b_16_0 1
b_16_1 1
b_16_2 1
b_16_3 1
b_16_4 1
b_16_5 1
b_16_6 1
b_16_7 1
b_16_8 1
b_16_9 1
b_16_10 1
b_16_11 1
b_16_12 1
b_16_13 1
b_16_14 1
b_16_15 1
b_16_17 1
b_16_18 1
b_16_19 1
b_16_20 1
b_16_21 1
b_16_22 1
b_16_23 1
b_16_24 1
b_17_0 1
b_17_1 1
b_17_2 1
b_17_3 1
b_17_4 1
b_17_5 1
b_17_6 1
b_17_7 1
b_17_8 1
b_17_9 1
b_17_10 1
b_17_11 1
b_17_12 1
b_17_13 1
b_17_14 1
b_17_15 1
b_17_16 1
b_17_18 1
b_17_19 1
b_17_20 1
b_17_21 1
b_17_22 1
b_17_23 1
b_17_24 1
b_18_0 1
b_18_1 1
b_18_2 1
b_18_3 1
b_18_4 1
b_18_5 1
b_18_6 1
b_18_7 1
b_18_8 1
b_18_9 1
b_18_10 1
b_18_11 1
b_18_12 1
b_18_13 1
b_18_14 1
b_18_15 1
b_18_16 1
b_18_17 1
b_18_19 1
b_18_20 1
b_18_21 1
b_18_22 1
b_18_23 1
b_18_24 1
b_19_0 1
b_19_1 1
b_19_2 1
b_19_3 1
b_19_4 1
b_19_5 1
b_19_6 1
b_19_7 1
b_19_8 1
b_19_9 1
b_19_10 1
b_19_11 1
b_19_12 1
b_19_13 1
b_19_14 1
b_19_15 1
b_19_16 1
b_19_17 1
b_19_18 1
b_19_20 1
b_19_21 1
b_19_22 1
b_19_23 1
b_19_24 1
b_20_0 1
b_20_1 1
b_20_2 1
b_20_3 1
b_20_4 1
b_20_5 1
b_20_6 1
b_20_7 1
b_20_8 1
b_20_9 1
b_20_10 1
b_20_11 1
b_20_12 1
b_20_13 1
b_20_14 1
b_20_15 1
b_20_16 1
b_20_17 1
b_20_18 1
b_20_19 1
b_20_21 1
b_20_22 1
b_20_23 1
b_20_24 1
b_21_0 1
b_21_1 1
b_21_2 1
b_21_3 1
b_21_4 1
b_21_5 1
b_21_6 1
b_21_7 1
b_21_8 1
b_21_9 1
b_21_10 1
b_21_11 1
b_21_12 1
b_21_13 1
b_21_14 1
b_21_15 1
b_21_16 1
b_21_17 1
b_21_18 1
b_21_19 1
b_21_20 1
b_21_22 1
b_21_23 1
b_21_24 1
b_22_0 1
b_22_1 1
b_22_2 1
b_22_3 1
b_22_4 1
b_22_5 1
b_22_6 1
b_22_7 1
b_22_8 1
b_22_9 1
b_22_10 1
b_22_11 1
b_22_12 1
b_22_13 1
b_22_14 1
b_22_15 1
b_22_16 1
b_22_17 1
b_22_18 1
b_22_19 1
b_22_20 1
b_22_21 1
b_22_23 1
b_22_24 1
b_23_0 1
b_23_1 1
b_23_2 1
b_23_3 1
b_23_4 1
b_23_5 1
b_23_6 1
b_23_7 1
b_23_8 1
b_23_9 1
b_23_10 1
b_23_11 1
b_23_12 1
b_23_13 1
b_23_14 1
b_23_15 1
b_23_16 1
b_23_17 1
b_23_18 1
b_23_19 1
b_23_20 1
b_23_21 1
b_23_22 1
b_23_24 1
b_24_0 1
b_24_1 1
b_24_2 1
b_24_3 1
b_24_4 1
b_24_5 1
b_24_6 1
b_24_7 1
b_24_8 1
b_24_9 1
b_24_10 1
b_24_11 1
b_24_12 1
b_24_13 1
b_24_14 1
b_24_15 1
b_24_16 1
b_24_17 1
b_24_18 1
b_24_19 1
b_24_20 1
b_24_21 1
b_24_22 1
b_24_23 1
p_0_0 0
p_0_1 0
p_0_2 0
p_0_3 1
p_1_0 0
p_1_1 0
p_1_2 0
p_1_3 1
p_2_0 0
p_2_1 0
p_2_2 0
p_2_3 1
p_3_0 0
p_3_1 0
p_3_2 0
p_3_3 1
p_4_0 0
p_4_1 0
p_4_2 0
p_4_3 1
p_5_0 0
p_5_1 0
p_5_2 0
p_5_3 1
p_6_0 0
p_6_1 0
p_6_2 0
p_6_3 1
p_7_0 0
p_7_1 0
p_7_2 0
p_7_3 1
p_8_0 0
p_8_1 0
p_8_2 0
p_8_3 1
p_9_0 0
p_9_1 0
p_9_2 0
p_9_3 1
p_10_0 0
p_10_1 0
p_10_2 0
p_10_3 1
p_11_0 0
p_11_1 0
p_11_2 0
p_11_3 1
p_12_0 0
p_12_1 0
p_12_2 0
p_12_3 1
p_13_0 0
p_13_1 0
p_13_2 0
p_13_3 1
p_14_0 0
p_14_1 0
p_14_2 0
p_14_3 1
p_15_0 0
p_15_1 0
p_15_2 0
p_15_3 1
p_16_0 0
p_16_1 0
p_16_2 0
p_16_3 1
p_17_0 0
p_17_1 0
p_17_2 0
p_17_3 1
p_18_0 0
p_18_1 0
p_18_2 0
p_18_3 1
p_19_0 0
p_19_1 0
p_19_2 0
p_19_3 1
p_20_0 0
p_20_1 0
p_20_2 0
p_20_3 1
p_21_0 0
p_21_1 0
p_21_2 0
p_21_3 1
p_22_0 0
p_22_1 0
p_22_2 0
p_22_3 1
p_23_0 0
p_23_1 0
p_23_2 0
p_23_3 1
p_24_0 0
p_24_1 0
p_24_2 0
p_24_3 1
rho_0 0
g_0 0
rho_1 0
g_1 0
rho_2 0
g_2 0
rho_3 0
g_3 0
rho_4 0
g_4 0
rho_5 0
g_5 0
rho_6 0
g_6 0
rho_7 0
g_7 0
rho_8 0
g_8 0
rho_9 0
g_9 0
rho_10 0
g_10 0
rho_11 0
g_11 0
rho_12 0
g_12 0
rho_13 0
g_13 0
rho_14 0
g_14 0
rho_15 0
g_15 0
rho_16 0
g_16 0
rho_17 0
g_17 0
rho_18 0
g_18 0
rho_19 0
g_19 0
rho_20 0
g_20 0
rho_21 0
g_21 0
rho_22 0
g_22 0
rho_23 0
g_23 0
rho_24 0
g_24 0
B1_0_1 0
B2_0_1 0
B1_0_2 0
B2_0_2 0
B1_0_3 0
B2_0_3 0
B1_0_4 0
B2_0_4 0
B1_0_5 0
B2_0_5 0
B1_0_6 0
B2_0_6 0
B1_0_7 0
B2_0_7 0
B1_0_8 0
B2_0_8 0
B1_0_9 0
B2_0_9 0
B1_0_10 0
B2_0_10 0
B1_0_11 0
B2_0_11 0
B1_0_12 0
B2_0_12 0
B1_0_13 0
B2_0_13 0
B1_0_14 0
B2_0_14 0
B1_0_15 0
B2_0_15 0
B1_0_16 0
B2_0_16 0
B1_0_17 0
B2_0_17 0
B1_0_18 0
B2_0_18 0
B1_0_19 0
B2_0_19 0
B1_0_20 0
B2_0_20 0
B1_0_21 0
B2_0_21 0
B1_0_22 0
B2_0_22 0
B1_0_23 0
B2_0_23 0
B1_0_24 0
B2_0_24 0
B1_1_0 0
B2_1_0 0
B1_1_2 0
B2_1_2 0
B1_1_3 0
B2_1_3 0
B1_1_4 0
B2_1_4 0
B1_1_5 0
B2_1_5 0
B1_1_6 0
B2_1_6 0
B1_1_7 0
B2_1_7 0
B1_1_8 0
B2_1_8 0
B1_1_9 0
B2_1_9 0
B1_1_10 0
B2_1_10 0
B1_1_11 0
B2_1_11 0
B1_1_12 0
B2_1_12 0
B1_1_13 0
B2_1_13 0
B1_1_14 0
B2_1_14 0
B1_1_15 0
B2_1_15 0
B1_1_16 0
B2_1_16 0
B1_1_17 0
B2_1_17 0
B1_1_18 0
B2_1_18 0
B1_1_19 0
B2_1_19 0
B1_1_20 0
B2_1_20 0
B1_1_21 0
B2_1_21 0
B1_1_22 0
B2_1_22 0
B1_1_23 0
B2_1_23 0
B1_1_24 0
B2_1_24 0
B1_2_0 0
B2_2_0 0
B1_2_1 0
B2_2_1 0
B1_2_3 0
B2_2_3 0
B1_2_4 0
B2_2_4 0
B1_2_5 0
B2_2_5 0
B1_2_6 0
B2_2_6 0
B1_2_7 0
B2_2_7 0
B1_2_8 0
B2_2_8 0
B1_2_9 0
B2_2_9 0
B1_2_10 0
B2_2_10 0
B1_2_11 0
B2_2_11 0
B1_2_12 0
B2_2_12 0
B1_2_13 0
B2_2_13 0
B1_2_14 0
B2_2_14 0
B1_2_15 0
B2_2_15 0
B1_2_16 0
B2_2_16 0
B1_2_17 0
B2_2_17 0
B1_2_18 0
B2_2_18 0
B1_2_19 0
B2_2_19 0
B1_2_20 0
B2_2_20 0
B1_2_21 0
B2_2_21 0
B1_2_22 0
B2_2_22 0
B1_2_23 0
B2_2_23 0
B1_2_24 0
B2_2_24 0
B1_3_0 0
B2_3_0 0
B1_3_1 0
B2_3_1 0
B1_3_2 0
B2_3_2 0
B1_3_4 0
B2_3_4 0
B1_3_5 0
B2_3_5 0
B1_3_6 0
B2_3_6 0
B1_3_7 0
B2_3_7 0
B1_3_8 0
B2_3_8 0
B1_3_9 0
B2_3_9 0
B1_3_10 0
B2_3_10 0
B1_3_11 0
B2_3_11 0
B1_3_12 0
B2_3_12 0
B1_3_13 0
B2_3_13 0
B1_3_14 0
B2_3_14 0
B1_3_15 0
B2_3_15 0
B1_3_16 0
B2_3_16 0
B1_3_17 0
B2_3_17 0
B1_3_18 0
B2_3_18 0
B1_3_19 0
B2_3_19 0
B1_3_20 0
B2_3_20 0
B1_3_21 0
B2_3_21 0
B1_3_22 0
B2_3_22 0
B1_3_23 0
B2_3_23 0
B1_3_24 0
B2_3_24 0
B1_4_0 0
B2_4_0 0
B1_4_1 0
B2_4_1 0
B1_4_2 0
B2_4_2 0
B1_4_3 0
B2_4_3 0
B1_4_5 0
B2_4_5 0
B1_4_6 0
B2_4_6 0
B1_4_7 0
B2_4_7 0
B1_4_8 0
B2_4_8 0
B1_4_9 0
B2_4_9 0
B1_4_10 0
B2_4_10 0
B1_4_11 0
B2_4_11 0
B1_4_12 0
B2_4_12 0
B1_4_13 0
B2_4_13 0
B1_4_14 0
B2_4_14 0
B1_4_15 0
B2_4_15 0
B1_4_16 0
B2_4_16 0
B1_4_17 0
B2_4_17 0
B1_4_18 0
B2_4_18 0
B1_4_19 0
B2_4_19 0
B1_4_20 0
B2_4_20 0
B1_4_21 0
B2_4_21 0
B1_4_22 0
B2_4_22 0
B1_4_23 0
B2_4_23 0
B1_4_24 0
B2_4_24 0
B1_5_0 0
B2_5_0 0
B1_5_1 0
B2_5_1 0
B1_5_2 0
B2_5_2 0
B1_5_3 0
B2_5_3 0
B1_5_4 0
B2_5_4 0
B1_5_6 0
B2_5_6 0
B1_5_7 0
B2_5_7 0
B1_5_8 0
B2_5_8 0
B1_5_9 0
B2_5_9 0
B1_5_10 0
B2_5_10 0
B1_5_11 0
B2_5_11 0
B1_5_12 0
B2_5_12 0
B1_5_13 0
B2_5_13 0
B1_5_14 0
B2_5_14 0
B1_5_15 0
B2_5_15 0
B1_5_16 0
B2_5_16 0
B1_5_17 0
B2_5_17 0
B1_5_18 0
B2_5_18 0
B1_5_19 0
B2_5_19 0
B1_5_20 0
B2_5_20 0
B1_5_21 0
B2_5_21 0
B1_5_22 0
B2_5_22 0
B1_5_23 0
B2_5_23 0
B1_5_24 0
B2_5_24 0
B1_6_0 0
B2_6_0 0
B1_6_1 0
B2_6_1 0
B1_6_2 0
B2_6_2 0
B1_6_3 0
B2_6_3 0
B1_6_4 0
B2_6_4 0
B1_6_5 0
B2_6_5 0
B1_6_7 0
B2_6_7 0
B1_6_8 0
B2_6_8 0
B1_6_9 0
B2_6_9 0
B1_6_10 0
B2_6_10 0
B1_6_11 0
B2_6_11 0
B1_6_12 0
B2_6_12 0
B1_6_13 0
B2_6_13 0
B1_6_14 0
B2_6_14 0
B1_6_15 0
B2_6_15 0
B1_6_16 0
B2_6_16 0
B1_6_17 0
B2_6_17 0
B1_6_18 0
B2_6_18 0
B1_6_19 0
B2_6_19 0
B1_6_20 0
B2_6_20 0
B1_6_21 0
B2_6_21 0
B1_6_22 0
B2_6_22 0
B1_6_23 0
B2_6_23 0
B1_6_24 0
B2_6_24 0
B1_7_0 0
B2_7_0 0
B1_7_1 0
B2_7_1 0
B1_7_2 0
B2_7_2 0
B1_7_3 0
B2_7_3 0
B1_7_4 0
B2_7_4 0
B1_7_5 0
B2_7_5 0
B1_7_6 0
B2_7_6 0
B1_7_8 0
B2_7_8 0
B1_7_9 0
B2_7_9 0
B1_7_10 0
B2_7_10 0
B1_7_11 0
B2_7_11 0
B1_7_12 0
B2_7_12 0
B1_7_13 0
B2_7_13 0
B1_7_14 0
B2_7_14 0
B1_7_15 0
B2_7_15 0
B1_7_16 0
B2_7_16 0
B1_7_17 0
B2_7_17 0
B1_7_18 0
B2_7_18 0
B1_7_19 0
B2_7_19 0
B1_7_20 0
B2_7_20 0
B1_7_21 0
B2_7_21 0
B1_7_22 0
B2_7_22 0
B1_7_23 0
B2_7_23 0
B1_7_24 0
B2_7_24 0
B1_8_0 0
B2_8_0 0
B1_8_1 0
B2_8_1 0
B1_8_2 0
B2_8_2 0
B1_8_3 0
B2_8_3 0
B1_8_4 0
B2_8_4 0
B1_8_5 0
B2_8_5 0
B1_8_6 0
B2_8_6 0
B1_8_7 0
B2_8_7 0
B1_8_9 0
B2_8_9 0
B1_8_10 0
B2_8_10 0
B1_8_11 0
B2_8_11 0
B1_8_12 0
B2_8_12 0
B1_8_13 0
B2_8_13 0
B1_8_14 0
B2_8_14 0
B1_8_15 0
B2_8_15 0
B1_8_16 0
B2_8_16 0
B1_8_17 0
B2_8_17 0
B1_8_18 0
B2_8_18 0
B1_8_19 0
B2_8_19 0
B1_8_20 0
B2_8_20 0
B1_8_21 0
B2_8_21 0
B1_8_22 0
B2_8_22 0
B1_8_23 0
B2_8_23 0
B1_8_24 0
B2_8_24 0
B1_9_0 0
B2_9_0 0
B1_9_1 0
B2_9_1 0
B1_9_2 0
B2_9_2 0
B1_9_3 0
B2_9_3 0
B1_9_4 0
B2_9_4 0
B1_9_5 0
B2_9_5 0
B1_9_6 0
B2_9_6 0
B1_9_7 0
B2_9_7 0
B1_9_8 0
B2_9_8 0
B1_9_10 0
B2_9_10 0
B1_9_11 0
B2_9_11 0
B1_9_12 0
B2_9_12 0
B1_9_13 0
B2_9_13 0
B1_9_14 0
B2_9_14 0
B1_9_15 0
B2_9_15 0
B1_9_16 0
B2_9_16 0
B1_9_17 0
B2_9_17 0
B1_9_18 0
B2_9_18 0
B1_9_19 0
B2_9_19 0
B1_9_20 0
B2_9_20 0
B1_9_21 0
B2_9_21 0
B1_9_22 0
B2_9_22 0
B1_9_23 0
B2_9_23 0
B1_9_24 0
B2_9_24 0
B1_10_0 0
B2_10_0 0
B1_10_1 0
B2_10_1 0
B1_10_2 0
B2_10_2 0
B1_10_3 0
B2_10_3 0
B1_10_4 0
B2_10_4 0
B1_10_5 0
B2_10_5 0
B1_10_6 0
B2_10_6 0
B1_10_7 0
B2_10_7 0
B1_10_8 0
B2_10_8 0
B1_10_9 0
B2_10_9 0
B1_10_11 0
B2_10_11 0
B1_10_12 0
B2_10_12 0
B1_10_13 0
B2_10_13 0
B1_10_14 0
B2_10_14 0
B1_10_15 0
B2_10_15 0
B1_10_16 0
B2_10_16 0
B1_10_17 0
B2_10_17 0
B1_10_18 0
B2_10_18 0
B1_10_19 0
B2_10_19 0
B1_10_20 0
B2_10_20 0
B1_10_21 0
B2_10_21 0
B1_10_22 0
B2_10_22 0
B1_10_23 0
B2_10_23 0
B1_10_24 0
B2_10_24 0
B1_11_0 0
B2_11_0 0
B1_11_1 0
B2_11_1 0
B1_11_2 0
B2_11_2 0
B1_11_3 0
B2_11_3 0
B1_11_4 0
B2_11_4 0
B1_11_5 0
B2_11_5 0
B1_11_6 0
B2_11_6 0
B1_11_7 0
B2_11_7 0
B1_11_8 0
B2_11_8 0
B1_11_9 0
B2_11_9 0
B1_11_10 0
B2_11_10 0
B1_11_12 0
B2_11_12 0
B1_11_13 0
B2_11_13 0
B1_11_14 0
B2_11_14 0
B1_11_15 0
B2_11_15 0
B1_11_16 0
B2_11_16 0
B1_11_17 0
B2_11_17 0
B1_11_18 0
B2_11_18 0
B1_11_19 0
B2_11_19 0
B1_11_20 0
B2_11_20 0
B1_11_21 0
B2_11_21 0
B1_11_22 0
B2_11_22 0
B1_11_23 0
B2_11_23 0
B1_11_24 0
B2_11_24 0
B1_12_0 0
B2_12_0 0
B1_12_1 0
B2_12_1 0
B1_12_2 0
B2_12_2 0
B1_12_3 0
B2_12_3 0
B1_12_4 0
B2_12_4 0
B1_12_5 0
B2_12_5 0
B1_12_6 0
B2_12_6 0
B1_12_7 0
B2_12_7 0
B1_12_8 0
B2_12_8 0
B1_12_9 0
B2_12_9 0
B1_12_10 0
B2_12_10 0
B1_12_11 0
B2_12_11 0
B1_12_13 0
B2_12_13 0
B1_12_14 0
B2_12_14 0
B1_12_15 0
B2_12_15 0
B1_12_16 0
B2_12_16 0
B1_12_17 0
B2_12_17 0
B1_12_18 0
B2_12_18 0
B1_12_19 0
B2_12_19 0
B1_12_20 0
B2_12_20 0
B1_12_21 0
B2_12_21 0
B1_12_22 0
B2_12_22 0
B1_12_23 0
B2_12_23 0
B1_12_24 0
B2_12_24 0
B1_13_0 0
B2_13_0 0
B1_13_1 0
B2_13_1 0
B1_13_2 0
B2_13_2 0
B1_13_3 0
B2_13_3 0
B1_13_4 0
B2_13_4 0
B1_13_5 0
B2_13_5 0
B1_13_6 0
B2_13_6 0
B1_13_7 0
B2_13_7 0
B1_13_8 0
B2_13_8 0
B1_13_9 0
B2_13_9 0
B1_13_10 0
B2_13_10 0
B1_13_11 0
B2_13_11 0
B1_13_12 0
B2_13_12 0
B1_13_14 0
B2_13_14 0
B1_13_15 0
B2_13_15 0
B1_13_16 0
B2_13_16 0
B1_13_17 0
B2_13_17 0
B1_13_18 0
B2_13_18 0
B1_13_19 0
B2_13_19 0
B1_13_20 0
B2_13_20 0
B1_13_21 0
B2_13_21 0
B1_13_22 0
B2_13_22 0
B1_13_23 0
B2_13_23 0
B1_13_24 0
B2_13_24 0
B1_14_0 0
B2_14_0 0
B1_14_1 0
B2_14_1 0
B1_14_2 0
B2_14_2 0
B1_14_3 0
B2_14_3 0
B1_14_4 0
B2_14_4 0
B1_14_5 0
B2_14_5 0
B1_14_6 0
B2_14_6 0
B1_14_7 0
B2_14_7 0
B1_14_8 0
B2_14_8 0
B1_14_9 0
B2_14_9 0
B1_14_10 0
B2_14_10 0
B1_14_11 0
B2_14_11 0
B1_14_12 0
B2_14_12 0
B1_14_13 0
B2_14_13 0
B1_14_15 0
B2_14_15 0
B1_14_16 0
B2_14_16 0
B1_14_17 0
B2_14_17 0
B1_14_18 0
B2_14_18 0
B1_14_19 0
B2_14_19 0
B1_14_20 0
B2_14_20 0
B1_14_21 0
B2_14_21 0
B1_14_22 0
B2_14_22 0
B1_14_23 0
B2_14_23 0
B1_14_24 0
B2_14_24 0
B1_15_0 0
B2_15_0 0
B1_15_1 0
B2_15_1 0
B1_15_2 0
B2_15_2 0
B1_15_3 0
B2_15_3 0
B1_15_4 0
B2_15_4 0
B1_15_5 0
B2_15_5 0
B1_15_6 0
B2_15_6 0
B1_15_7 0
B2_15_7 0
B1_15_8 0
B2_15_8 0
B1_15_9 0
B2_15_9 0
B1_15_10 0
B2_15_10 0
B1_15_11 0
B2_15_11 0
B1_15_12 0
B2_15_12 0
B1_15_13 0
B2_15_13 0
B1_15_14 0
B2_15_14 0
B1_15_16 0
B2_15_16 0
B1_15_17 0
B2_15_17 0
B1_15_18 0
B2_15_18 0
B1_15_19 0
B2_15_19 0
B1_15_20 0
B2_15_20 0
B1_15_21 0
B2_15_21 0
B1_15_22 0
B2_15_22 0
B1_15_23 0
B2_15_23 0
B1_15_24 0
B2_15_24 0
B1_16_0 0
B2_16_0 0
B1_16_1 0
B2_16_1 0
B1_16_2 0
B2_16_2 0
B1_16_3 0
B2_16_3 0
B1_16_4 0
B2_16_4 0
B1_16_5 0
B2_16_5 0
B1_16_6 0
B2_16_6 0
B1_16_7 0
B2_16_7 0
B1_16_8 0
B2_16_8 0
B1_16_9 0
B2_16_9 0
B1_16_10 0
B2_16_10 0
B1_16_11 0
B2_16_11 0
B1_16_12 0
B2_16_12 0
B1_16_13 0
B2_16_13 0
B1_16_14 0
B2_16_14 0
B1_16_15 0
B2_16_15 0
B1_16_17 0
B2_16_17 0
B1_16_18 0
B2_16_18 0
B1_16_19 0
B2_16_19 0
B1_16_20 0
B2_16_20 0
B1_16_21 0
B2_16_21 0
B1_16_22 0
B2_16_22 0
B1_16_23 0
B2_16_23 0
B1_16_24 0
B2_16_24 0
B1_17_0 0
B2_17_0 0
B1_17_1 0
B2_17_1 0
B1_17_2 0
B2_17_2 0
B1_17_3 0
B2_17_3 0
B1_17_4 0
B2_17_4 0
B1_17_5 0
B2_17_5 0
B1_17_6 0
B2_17_6 0
B1_17_7 0
B2_17_7 0
B1_17_8 0
B2_17_8 0
B1_17_9 0
B2_17_9 0
B1_17_10 0
B2_17_10 0
B1_17_11 0
B2_17_11 0
B1_17_12 0
B2_17_12 0
B1_17_13 0
B2_17_13 0
B1_17_14 0
B2_17_14 0
B1_17_15 0
B2_17_15 0
B1_17_16 0
B2_17_16 0
B1_17_18 0
B2_17_18 0
B1_17_19 0
B2_17_19 0
B1_17_20 0
B2_17_20 0
B1_17_21 0
B2_17_21 0
B1_17_22 0
B2_17_22 0
B1_17_23 0
B2_17_23 0
B1_17_24 0
B2_17_24 0
B1_18_0 0
B2_18_0 0
B1_18_1 0
B2_18_1 0
B1_18_2 0
B2_18_2 0
B1_18_3 0
B2_18_3 0
B1_18_4 0
B2_18_4 0
B1_18_5 0
B2_18_5 0
B1_18_6 0
B2_18_6 0
B1_18_7 0
B2_18_7 0
B1_18_8 0
B2_18_8 0
B1_18_9 0
B2_18_9 0
B1_18_10 0
B2_18_10 0
B1_18_11 0
B2_18_11 0
B1_18_12 0
B2_18_12 0
B1_18_13 0
B2_18_13 0
B1_18_14 0
B2_18_14 0
B1_18_15 0
B2_18_15 0
B1_18_16 0
B2_18_16 0
B1_18_17 0
B2_18_17 0
B1_18_19 0
B2_18_19 0
B1_18_20 0
B2_18_20 0
B1_18_21 0
B2_18_21 0
B1_18_22 0
B2_18_22 0
B1_18_23 0
B2_18_23 0
B1_18_24 0
B2_18_24 0
B1_19_0 0
B2_19_0 0
B1_19_1 0
B2_19_1 0
B1_19_2 0
B2_19_2 0
B1_19_3 0
B2_19_3 0
B1_19_4 0
B2_19_4 0
B1_19_5 0
B2_19_5 0
B1_19_6 0
B2_19_6 0
B1_19_7 0
B2_19_7 0
B1_19_8 0
B2_19_8 0
B1_19_9 0
B2_19_9 0
B1_19_10 0
B2_19_10 0
B1_19_11 0
B2_19_11 0
B1_19_12 0
B2_19_12 0
B1_19_13 0
B2_19_13 0
B1_19_14 0
B2_19_14 0
B1_19_15 0
B2_19_15 0
B1_19_16 0
B2_19_16 0
B1_19_17 0
B2_19_17 0
B1_19_18 0
B2_19_18 0
B1_19_20 0
B2_19_20 0
B1_19_21 0
B2_19_21 0
B1_19_22 0
B2_19_22 0
B1_19_23 0
B2_19_23 0
B1_19_24 0
B2_19_24 0
B1_20_0 0
B2_20_0 0
B1_20_1 0
B2_20_1 0
B1_20_2 0
B2_20_2 0
B1_20_3 0
B2_20_3 0
B1_20_4 0
B2_20_4 0
B1_20_5 0
B2_20_5 0
B1_20_6 0
B2_20_6 0
B1_20_7 0
B2_20_7 0
B1_20_8 0
B2_20_8 0
B1_20_9 0
B2_20_9 0
B1_20_10 0
B2_20_10 0
B1_20_11 0
B2_20_11 0
B1_20_12 0
B2_20_12 0
B1_20_13 0
B2_20_13 0
B1_20_14 0
B2_20_14 0
B1_20_15 0
B2_20_15 0
B1_20_16 0
B2_20_16 0
B1_20_17 0
B2_20_17 0
B1_20_18 0
B2_20_18 0
B1_20_19 0
B2_20_19 0
B1_20_21 0
B2_20_21 0
B1_20_22 0
B2_20_22 0
B1_20_23 0
B2_20_23 0
B1_20_24 0
B2_20_24 0
B1_21_0 0
B2_21_0 0
B1_21_1 0
B2_21_1 0
B1_21_2 0
B2_21_2 0
B1_21_3 0
B2_21_3 0
B1_21_4 0
B2_21_4 0
B1_21_5 0
B2_21_5 0
B1_21_6 0
B2_21_6 0
B1_21_7 0
B2_21_7 0
B1_21_8 0
B2_21_8 0
B1_21_9 0
B2_21_9 0
B1_21_10 0
B2_21_10 0
B1_21_11 0
B2_21_11 0
B1_21_12 0
B2_21_12 0
B1_21_13 0
B2_21_13 0
B1_21_14 0
B2_21_14 0
B1_21_15 0
B2_21_15 0
B1_21_16 0
B2_21_16 0
B1_21_17 0
B2_21_17 0
B1_21_18 0
B2_21_18 0
B1_21_19 0
B2_21_19 0
B1_21_20 0
B2_21_20 0
B1_21_22 0
B2_21_22 0
B1_21_23 0
B2_21_23 0
B1_21_24 0
B2_21_24 0
B1_22_0 0
B2_22_0 0
B1_22_1 0
B2_22_1 0
B1_22_2 0
B2_22_2 0
B1_22_3 0
B2_22_3 0
B1_22_4 0
B2_22_4 0
B1_22_5 0
B2_22_5 0
B1_22_6 0
B2_22_6 0
B1_22_7 0
B2_22_7 0
B1_22_8 0
B2_22_8 0
B1_22_9 0
B2_22_9 0
B1_22_10 0
B2_22_10 0
B1_22_11 0
B2_22_11 0
B1_22_12 0
B2_22_12 0
B1_22_13 0
B2_22_13 0
B1_22_14 0
B2_22_14 0
B1_22_15 0
B2_22_15 0
B1_22_16 0
B2_22_16 0
B1_22_17 0
B2_22_17 0
B1_22_18 0
B2_22_18 0
B1_22_19 0
B2_22_19 0
B1_22_20 0
B2_22_20 0
B1_22_21 0
B2_22_21 0
B1_22_23 0
B2_22_23 0
B1_22_24 0
B2_22_24 0
B1_23_0 0
B2_23_0 0
B1_23_1 0
B2_23_1 0
B1_23_2 0
B2_23_2 0
B1_23_3 0
B2_23_3 0
B1_23_4 0
B2_23_4 0
B1_23_5 0
B2_23_5 0
B1_23_6 0
B2_23_6 0
B1_23_7 0
B2_23_7 0
B1_23_8 0
B2_23_8 0
B1_23_9 0
B2_23_9 0
B1_23_10 0
B2_23_10 0
B1_23_11 0
B2_23_11 0
B1_23_12 0
B2_23_12 0
B1_23_13 0
B2_23_13 0
B1_23_14 0
B2_23_14 0
B1_23_15 0
B2_23_15 0
B1_23_16 0
B2_23_16 0
B1_23_17 0
B2_23_17 0
B1_23_18 0
B2_23_18 0
B1_23_19 0
B2_23_19 0
B1_23_20 0
B2_23_20 0
B1_23_21 0
B2_23_21 0
B1_23_22 0
B2_23_22 0
B1_23_24 0
B2_23_24 0
B1_24_0 0
B2_24_0 0
B1_24_1 0
B2_24_1 0
B1_24_2 0
B2_24_2 0
B1_24_3 0
B2_24_3 0
B1_24_4 0
B2_24_4 0
B1_24_5 0
B2_24_5 0
B1_24_6 0
B2_24_6 0
B1_24_7 0
B2_24_7 0
B1_24_8 0
B2_24_8 0
B1_24_9 0
B2_24_9 0
B1_24_10 0
B2_24_10 0
B1_24_11 0
B2_24_11 0
B1_24_12 0
B2_24_12 0
B1_24_13 0
B2_24_13 0
B1_24_14 0
B2_24_14 0
B1_24_15 0
B2_24_15 0
B1_24_16 0
B2_24_16 0
B1_24_17 0
B2_24_17 0
B1_24_18 0
B2_24_18 0
B1_24_19 0
B2_24_19 0
B1_24_20 0
B2_24_20 0
B1_24_21 0
B2_24_21 0
B1_24_22 0
B2_24_22 0
B1_24_23 0
B2_24_23 0
x_0 0
y_0 0
x_1 0
y_1 0
x_2 0
y_2 0
x_3 0
y_3 0
x_4 0
y_4 0
x_5 0
y_5 0
x_6 0
y_6 0
x_7 0
y_7 0
x_8 0
y_8 0
x_9 0
y_9 0
x_10 0
y_10 0
x_11 0
y_11 0
x_12 0
y_12 0
x_13 0
y_13 0
x_14 0
y_14 0
x_15 0
y_15 0
x_16 0
y_16 0
x_17 0
y_17 0
x_18 0
y_18 0
x_19 0
y_19 0
x_20 0
y_20 0
x_21 0
y_21 0
x_22 0
y_22 0
x_23 0
y_23 0
x_24 0
y_24 0
